set JOBS :=
L1C1 L1C2
L2C1 L2C2
;

param a := 1.0;
param b := 4.0;

param p :=
L1C1 16  L1C2 25
L2C1 20  L2C2 20
;

param d :=
L1C1 4  L1C2 4
L2C1 5  L2C2 5
;

param setup :
       L1C1 L1C2 L2C1 L2C2 :=
L1C1    0    4    0    4
L1C2    4    0    4    0
L2C1    0    4    0    4
L2C2    4    0    4    0
;

end;
